33D32945 STP File, STP Format Version 1.0

SECTION Result
Length 8
Time 0,009667
Algorithm HAKIMI
END

SECTION Comment
Name "Prosty graf 4a"
END

SECTION Graph
Nodes 8
Edges 15
E 1 2 2
E 1 3 5
E 1 5 4
E 2 4 1
E 2 5 1
E 3 4 3
E 1 7 5
E 2 6 3
E 3 5 1
E 4 5 2
E 3 8 3
E 4 8 2
E 6 7 1
E 6 8 2
E 7 8 2
END

SECTION Terminals
Terminals 4
T 1
T 3
T 5
T 7
END

SECTION Solution
S 1 2 2
S 2 5 1
S 6 7 1
S 2 6 3
S 3 5 1
END

EOF
